Graphs/maxcut_20_04_3_instance_01
20
3 0 2
4 0 1
5 3 3
6 2 1
6 3 1
6 4 3
7 0 1
7 6 3
8 0 3
8 1 1
8 4 3
8 6 2
8 7 2
9 0 3
9 2 1
9 5 1
9 7 3
10 1 2
10 2 1
10 4 3
10 7 2
10 8 1
11 0 1
11 1 1
11 2 1
11 8 2
12 0 1
12 1 3
12 2 2
12 8 1
13 2 1
13 4 1
13 6 2
13 9 3
13 11 3
13 12 3
14 0 1
14 1 1
14 3 2
15 0 2
15 5 2
15 7 2
15 13 1
15 14 3
16 0 3
16 2 2
16 8 3
16 12 2
17 4 3
17 6 3
17 7 2
17 9 1
17 10 2
17 11 2
17 16 3
18 2 2
18 3 3
18 5 2
18 9 2
18 11 3
18 13 1
18 15 1
18 16 3
18 17 3
19 0 2
19 3 3
19 6 2
19 7 2
19 11 1
19 14 3
19 17 1
