maxcut_20_04_3_instance_01.txt
20
1 0 1
3 0 2
3 1 2
4 0 2
4 3 3
5 0 2
5 2 2
6 0 2
6 2 2
6 3 3
6 4 3
7 2 3
7 4 3
7 5 1
8 0 1
8 1 1
8 4 3
9 2 1
9 6 3
10 6 1
10 9 2
11 2 1
11 6 2
11 7 1
11 8 1
11 9 2
12 0 2
12 7 1
13 0 3
13 1 3
13 2 1
13 6 2
13 7 2
13 8 3
13 10 2
13 12 2
14 0 2
14 2 1
14 3 1
14 5 2
14 7 1
14 8 2
14 11 1
15 6 3
15 8 1
15 9 2
15 12 1
15 13 1
15 14 3
16 9 2
16 10 2
16 11 2
16 13 2
16 14 2
17 5 2
17 7 3
18 0 1
18 2 2
18 3 1
18 4 2
18 5 2
18 7 2
18 9 1
18 13 3
18 14 2
19 0 3
19 2 3
19 3 3
19 6 3
19 7 3
19 9 1
19 13 2
19 15 2
19 18 3
